p cnf 312 2469
1 0
34 0
139 0
244 0
253 0
222 0
-1 -33 0
-2 -34 0
-3 -35 0
-4 -36 0
-5 -37 0
-6 -38 0
-7 -39 0
-8 -40 0
-1 -241 0
-2 -242 0
-3 -243 0
-4 -244 0
-5 -245 0
-6 -246 0
-7 -247 0
-8 -248 0
-1 -97 0
-2 -98 0
-3 -99 0
-4 -100 0
-5 -101 0
-6 -102 0
-7 -103 0
-8 -104 0
-1 -225 0
-2 -226 0
-3 -227 0
-4 -228 0
-5 -229 0
-6 -230 0
-7 -231 0
-8 -232 0
-1 -49 0
-2 -50 0
-3 -51 0
-4 -52 0
-5 -53 0
-6 -54 0
-7 -55 0
-8 -56 0
-1 -41 0
-2 -42 0
-3 -43 0
-4 -44 0
-5 -45 0
-6 -46 0
-7 -47 0
-8 -48 0
-1 -249 0
-2 -250 0
-3 -251 0
-4 -252 0
-5 -253 0
-6 -254 0
-7 -255 0
-8 -256 0
-1 -105 0
-2 -106 0
-3 -107 0
-4 -108 0
-5 -109 0
-6 -110 0
-7 -111 0
-8 -112 0
-1 -217 0
-2 -218 0
-3 -219 0
-4 -220 0
-5 -221 0
-6 -222 0
-7 -223 0
-8 -224 0
-1 -9 0
-2 -10 0
-3 -11 0
-4 -12 0
-5 -13 0
-6 -14 0
-7 -15 0
-8 -16 0
-1 -137 0
-2 -138 0
-3 -139 0
-4 -140 0
-5 -141 0
-6 -142 0
-7 -143 0
-8 -144 0
-1 -129 0
-2 -130 0
-3 -131 0
-4 -132 0
-5 -133 0
-6 -134 0
-7 -135 0
-8 -136 0
-1 -193 0
-2 -194 0
-3 -195 0
-4 -196 0
-5 -197 0
-6 -198 0
-7 -199 0
-8 -200 0
-1 -201 0
-2 -202 0
-3 -203 0
-4 -204 0
-5 -205 0
-6 -206 0
-7 -207 0
-8 -208 0
-1 -81 0
-2 -82 0
-3 -83 0
-4 -84 0
-5 -85 0
-6 -86 0
-7 -87 0
-8 -88 0
-1 -281 0
-2 -282 0
-3 -283 0
-4 -284 0
-5 -285 0
-6 -286 0
-7 -287 0
-8 -288 0
-9 -33 0
-10 -34 0
-11 -35 0
-12 -36 0
-13 -37 0
-14 -38 0
-15 -39 0
-16 -40 0
-9 -241 0
-10 -242 0
-11 -243 0
-12 -244 0
-13 -245 0
-14 -246 0
-15 -247 0
-16 -248 0
-9 -249 0
-10 -250 0
-11 -251 0
-12 -252 0
-13 -253 0
-14 -254 0
-15 -255 0
-16 -256 0
-9 -217 0
-10 -218 0
-11 -219 0
-12 -220 0
-13 -221 0
-14 -222 0
-15 -223 0
-16 -224 0
-9 -145 0
-10 -146 0
-11 -147 0
-12 -148 0
-13 -149 0
-14 -150 0
-15 -151 0
-16 -152 0
-9 -97 0
-10 -98 0
-11 -99 0
-12 -100 0
-13 -101 0
-14 -102 0
-15 -103 0
-16 -104 0
-9 -177 0
-10 -178 0
-11 -179 0
-12 -180 0
-13 -181 0
-14 -182 0
-15 -183 0
-16 -184 0
-9 -281 0
-10 -282 0
-11 -283 0
-12 -284 0
-13 -285 0
-14 -286 0
-15 -287 0
-16 -288 0
-9 -17 0
-10 -18 0
-11 -19 0
-12 -20 0
-13 -21 0
-14 -22 0
-15 -23 0
-16 -24 0
-9 -169 0
-10 -170 0
-11 -171 0
-12 -172 0
-13 -173 0
-14 -174 0
-15 -175 0
-16 -176 0
-9 -185 0
-10 -186 0
-11 -187 0
-12 -188 0
-13 -189 0
-14 -190 0
-15 -191 0
-16 -192 0
-9 -289 0
-10 -290 0
-11 -291 0
-12 -292 0
-13 -293 0
-14 -294 0
-15 -295 0
-16 -296 0
-9 -193 0
-10 -194 0
-11 -195 0
-12 -196 0
-13 -197 0
-14 -198 0
-15 -199 0
-16 -200 0
-9 -57 0
-10 -58 0
-11 -59 0
-12 -60 0
-13 -61 0
-14 -62 0
-15 -63 0
-16 -64 0
-9 -41 0
-10 -42 0
-11 -43 0
-12 -44 0
-13 -45 0
-14 -46 0
-15 -47 0
-16 -48 0
-17 -249 0
-18 -250 0
-19 -251 0
-20 -252 0
-21 -253 0
-22 -254 0
-23 -255 0
-24 -256 0
-17 -89 0
-18 -90 0
-19 -91 0
-20 -92 0
-21 -93 0
-22 -94 0
-23 -95 0
-24 -96 0
-17 -161 0
-18 -162 0
-19 -163 0
-20 -164 0
-21 -165 0
-22 -166 0
-23 -167 0
-24 -168 0
-17 -153 0
-18 -154 0
-19 -155 0
-20 -156 0
-21 -157 0
-22 -158 0
-23 -159 0
-24 -160 0
-17 -217 0
-18 -218 0
-19 -219 0
-20 -220 0
-21 -221 0
-22 -222 0
-23 -223 0
-24 -224 0
-17 -145 0
-18 -146 0
-19 -147 0
-20 -148 0
-21 -149 0
-22 -150 0
-23 -151 0
-24 -152 0
-17 -65 0
-18 -66 0
-19 -67 0
-20 -68 0
-21 -69 0
-22 -70 0
-23 -71 0
-24 -72 0
-17 -273 0
-18 -274 0
-19 -275 0
-20 -276 0
-21 -277 0
-22 -278 0
-23 -279 0
-24 -280 0
-17 -121 0
-18 -122 0
-19 -123 0
-20 -124 0
-21 -125 0
-22 -126 0
-23 -127 0
-24 -128 0
-17 -169 0
-18 -170 0
-19 -171 0
-20 -172 0
-21 -173 0
-22 -174 0
-23 -175 0
-24 -176 0
-17 -57 0
-18 -58 0
-19 -59 0
-20 -60 0
-21 -61 0
-22 -62 0
-23 -63 0
-24 -64 0
-17 -177 0
-18 -178 0
-19 -179 0
-20 -180 0
-21 -181 0
-22 -182 0
-23 -183 0
-24 -184 0
-17 -185 0
-18 -186 0
-19 -187 0
-20 -188 0
-21 -189 0
-22 -190 0
-23 -191 0
-24 -192 0
-17 -113 0
-18 -114 0
-19 -115 0
-20 -116 0
-21 -117 0
-22 -118 0
-23 -119 0
-24 -120 0
-25 -105 0
-26 -106 0
-27 -107 0
-28 -108 0
-29 -109 0
-30 -110 0
-31 -111 0
-32 -112 0
-25 -233 0
-26 -234 0
-27 -235 0
-28 -236 0
-29 -237 0
-30 -238 0
-31 -239 0
-32 -240 0
-25 -257 0
-26 -258 0
-27 -259 0
-28 -260 0
-29 -261 0
-30 -262 0
-31 -263 0
-32 -264 0
-25 -297 0
-26 -298 0
-27 -299 0
-28 -300 0
-29 -301 0
-30 -302 0
-31 -303 0
-32 -304 0
-25 -265 0
-26 -266 0
-27 -267 0
-28 -268 0
-29 -269 0
-30 -270 0
-31 -271 0
-32 -272 0
-25 -89 0
-26 -90 0
-27 -91 0
-28 -92 0
-29 -93 0
-30 -94 0
-31 -95 0
-32 -96 0
-25 -161 0
-26 -162 0
-27 -163 0
-28 -164 0
-29 -165 0
-30 -166 0
-31 -167 0
-32 -168 0
-25 -153 0
-26 -154 0
-27 -155 0
-28 -156 0
-29 -157 0
-30 -158 0
-31 -159 0
-32 -160 0
-25 -65 0
-26 -66 0
-27 -67 0
-28 -68 0
-29 -69 0
-30 -70 0
-31 -71 0
-32 -72 0
-25 -129 0
-26 -130 0
-27 -131 0
-28 -132 0
-29 -133 0
-30 -134 0
-31 -135 0
-32 -136 0
-25 -121 0
-26 -122 0
-27 -123 0
-28 -124 0
-29 -125 0
-30 -126 0
-31 -127 0
-32 -128 0
-25 -73 0
-26 -74 0
-27 -75 0
-28 -76 0
-29 -77 0
-30 -78 0
-31 -79 0
-32 -80 0
-25 -209 0
-26 -210 0
-27 -211 0
-28 -212 0
-29 -213 0
-30 -214 0
-31 -215 0
-32 -216 0
-25 -81 0
-26 -82 0
-27 -83 0
-28 -84 0
-29 -85 0
-30 -86 0
-31 -87 0
-32 -88 0
-25 -113 0
-26 -114 0
-27 -115 0
-28 -116 0
-29 -117 0
-30 -118 0
-31 -119 0
-32 -120 0
-33 -241 0
-34 -242 0
-35 -243 0
-36 -244 0
-37 -245 0
-38 -246 0
-39 -247 0
-40 -248 0
-33 -249 0
-34 -250 0
-35 -251 0
-36 -252 0
-37 -253 0
-38 -254 0
-39 -255 0
-40 -256 0
-33 -217 0
-34 -218 0
-35 -219 0
-36 -220 0
-37 -221 0
-38 -222 0
-39 -223 0
-40 -224 0
-33 -97 0
-34 -98 0
-35 -99 0
-36 -100 0
-37 -101 0
-38 -102 0
-39 -103 0
-40 -104 0
-33 -145 0
-34 -146 0
-35 -147 0
-36 -148 0
-37 -149 0
-38 -150 0
-39 -151 0
-40 -152 0
-33 -49 0
-34 -50 0
-35 -51 0
-36 -52 0
-37 -53 0
-38 -54 0
-39 -55 0
-40 -56 0
-33 -225 0
-34 -226 0
-35 -227 0
-36 -228 0
-37 -229 0
-38 -230 0
-39 -231 0
-40 -232 0
-33 -137 0
-34 -138 0
-35 -139 0
-36 -140 0
-37 -141 0
-38 -142 0
-39 -143 0
-40 -144 0
-33 -273 0
-34 -274 0
-35 -275 0
-36 -276 0
-37 -277 0
-38 -278 0
-39 -279 0
-40 -280 0
-33 -177 0
-34 -178 0
-35 -179 0
-36 -180 0
-37 -181 0
-38 -182 0
-39 -183 0
-40 -184 0
-33 -193 0
-34 -194 0
-35 -195 0
-36 -196 0
-37 -197 0
-38 -198 0
-39 -199 0
-40 -200 0
-33 -57 0
-34 -58 0
-35 -59 0
-36 -60 0
-37 -61 0
-38 -62 0
-39 -63 0
-40 -64 0
-33 -41 0
-34 -42 0
-35 -43 0
-36 -44 0
-37 -45 0
-38 -46 0
-39 -47 0
-40 -48 0
-33 -281 0
-34 -282 0
-35 -283 0
-36 -284 0
-37 -285 0
-38 -286 0
-39 -287 0
-40 -288 0
-41 -241 0
-42 -242 0
-43 -243 0
-44 -244 0
-45 -245 0
-46 -246 0
-47 -247 0
-48 -248 0
-41 -105 0
-42 -106 0
-43 -107 0
-44 -108 0
-45 -109 0
-46 -110 0
-47 -111 0
-48 -112 0
-41 -265 0
-42 -266 0
-43 -267 0
-44 -268 0
-45 -269 0
-46 -270 0
-47 -271 0
-48 -272 0
-41 -97 0
-42 -98 0
-43 -99 0
-44 -100 0
-45 -101 0
-46 -102 0
-47 -103 0
-48 -104 0
-41 -49 0
-42 -50 0
-43 -51 0
-44 -52 0
-45 -53 0
-46 -54 0
-47 -55 0
-48 -56 0
-41 -225 0
-42 -226 0
-43 -227 0
-44 -228 0
-45 -229 0
-46 -230 0
-47 -231 0
-48 -232 0
-41 -305 0
-42 -306 0
-43 -307 0
-44 -308 0
-45 -309 0
-46 -310 0
-47 -311 0
-48 -312 0
-41 -289 0
-42 -290 0
-43 -291 0
-44 -292 0
-45 -293 0
-46 -294 0
-47 -295 0
-48 -296 0
-41 -193 0
-42 -194 0
-43 -195 0
-44 -196 0
-45 -197 0
-46 -198 0
-47 -199 0
-48 -200 0
-41 -201 0
-42 -202 0
-43 -203 0
-44 -204 0
-45 -205 0
-46 -206 0
-47 -207 0
-48 -208 0
-41 -81 0
-42 -82 0
-43 -83 0
-44 -84 0
-45 -85 0
-46 -86 0
-47 -87 0
-48 -88 0
-41 -281 0
-42 -282 0
-43 -283 0
-44 -284 0
-45 -285 0
-46 -286 0
-47 -287 0
-48 -288 0
-49 -241 0
-50 -242 0
-51 -243 0
-52 -244 0
-53 -245 0
-54 -246 0
-55 -247 0
-56 -248 0
-49 -249 0
-50 -250 0
-51 -251 0
-52 -252 0
-53 -253 0
-54 -254 0
-55 -255 0
-56 -256 0
-49 -105 0
-50 -106 0
-51 -107 0
-52 -108 0
-53 -109 0
-54 -110 0
-55 -111 0
-56 -112 0
-49 -233 0
-50 -234 0
-51 -235 0
-52 -236 0
-53 -237 0
-54 -238 0
-55 -239 0
-56 -240 0
-49 -97 0
-50 -98 0
-51 -99 0
-52 -100 0
-53 -101 0
-54 -102 0
-55 -103 0
-56 -104 0
-49 -225 0
-50 -226 0
-51 -227 0
-52 -228 0
-53 -229 0
-54 -230 0
-55 -231 0
-56 -232 0
-49 -137 0
-50 -138 0
-51 -139 0
-52 -140 0
-53 -141 0
-54 -142 0
-55 -143 0
-56 -144 0
-49 -129 0
-50 -130 0
-51 -131 0
-52 -132 0
-53 -133 0
-54 -134 0
-55 -135 0
-56 -136 0
-49 -81 0
-50 -82 0
-51 -83 0
-52 -84 0
-53 -85 0
-54 -86 0
-55 -87 0
-56 -88 0
-49 -65 0
-50 -66 0
-51 -67 0
-52 -68 0
-53 -69 0
-54 -70 0
-55 -71 0
-56 -72 0
-49 -273 0
-50 -274 0
-51 -275 0
-52 -276 0
-53 -277 0
-54 -278 0
-55 -279 0
-56 -280 0
-49 -201 0
-50 -202 0
-51 -203 0
-52 -204 0
-53 -205 0
-54 -206 0
-55 -207 0
-56 -208 0
-49 -209 0
-50 -210 0
-51 -211 0
-52 -212 0
-53 -213 0
-54 -214 0
-55 -215 0
-56 -216 0
-57 -241 0
-58 -242 0
-59 -243 0
-60 -244 0
-61 -245 0
-62 -246 0
-63 -247 0
-64 -248 0
-57 -249 0
-58 -250 0
-59 -251 0
-60 -252 0
-61 -253 0
-62 -254 0
-63 -255 0
-64 -256 0
-57 -161 0
-58 -162 0
-59 -163 0
-60 -164 0
-61 -165 0
-62 -166 0
-63 -167 0
-64 -168 0
-57 -153 0
-58 -154 0
-59 -155 0
-60 -156 0
-61 -157 0
-62 -158 0
-63 -159 0
-64 -160 0
-57 -217 0
-58 -218 0
-59 -219 0
-60 -220 0
-61 -221 0
-62 -222 0
-63 -223 0
-64 -224 0
-57 -145 0
-58 -146 0
-59 -147 0
-60 -148 0
-61 -149 0
-62 -150 0
-63 -151 0
-64 -152 0
-57 -65 0
-58 -66 0
-59 -67 0
-60 -68 0
-61 -69 0
-62 -70 0
-63 -71 0
-64 -72 0
-57 -137 0
-58 -138 0
-59 -139 0
-60 -140 0
-61 -141 0
-62 -142 0
-63 -143 0
-64 -144 0
-57 -273 0
-58 -274 0
-59 -275 0
-60 -276 0
-61 -277 0
-62 -278 0
-63 -279 0
-64 -280 0
-57 -121 0
-58 -122 0
-59 -123 0
-60 -124 0
-61 -125 0
-62 -126 0
-63 -127 0
-64 -128 0
-57 -169 0
-58 -170 0
-59 -171 0
-60 -172 0
-61 -173 0
-62 -174 0
-63 -175 0
-64 -176 0
-57 -177 0
-58 -178 0
-59 -179 0
-60 -180 0
-61 -181 0
-62 -182 0
-63 -183 0
-64 -184 0
-65 -241 0
-66 -242 0
-67 -243 0
-68 -244 0
-69 -245 0
-70 -246 0
-71 -247 0
-72 -248 0
-65 -249 0
-66 -250 0
-67 -251 0
-68 -252 0
-69 -253 0
-70 -254 0
-71 -255 0
-72 -256 0
-65 -233 0
-66 -234 0
-67 -235 0
-68 -236 0
-69 -237 0
-70 -238 0
-71 -239 0
-72 -240 0
-65 -89 0
-66 -90 0
-67 -91 0
-68 -92 0
-69 -93 0
-70 -94 0
-71 -95 0
-72 -96 0
-65 -161 0
-66 -162 0
-67 -163 0
-68 -164 0
-69 -165 0
-70 -166 0
-71 -167 0
-72 -168 0
-65 -153 0
-66 -154 0
-67 -155 0
-68 -156 0
-69 -157 0
-70 -158 0
-71 -159 0
-72 -160 0
-65 -137 0
-66 -138 0
-67 -139 0
-68 -140 0
-69 -141 0
-70 -142 0
-71 -143 0
-72 -144 0
-65 -273 0
-66 -274 0
-67 -275 0
-68 -276 0
-69 -277 0
-70 -278 0
-71 -279 0
-72 -280 0
-65 -129 0
-66 -130 0
-67 -131 0
-68 -132 0
-69 -133 0
-70 -134 0
-71 -135 0
-72 -136 0
-65 -121 0
-66 -122 0
-67 -123 0
-68 -124 0
-69 -125 0
-70 -126 0
-71 -127 0
-72 -128 0
-65 -209 0
-66 -210 0
-67 -211 0
-68 -212 0
-69 -213 0
-70 -214 0
-71 -215 0
-72 -216 0
-65 -81 0
-66 -82 0
-67 -83 0
-68 -84 0
-69 -85 0
-70 -86 0
-71 -87 0
-72 -88 0
-73 -105 0
-74 -106 0
-75 -107 0
-76 -108 0
-77 -109 0
-78 -110 0
-79 -111 0
-80 -112 0
-73 -257 0
-74 -258 0
-75 -259 0
-76 -260 0
-77 -261 0
-78 -262 0
-79 -263 0
-80 -264 0
-73 -297 0
-74 -298 0
-75 -299 0
-76 -300 0
-77 -301 0
-78 -302 0
-79 -303 0
-80 -304 0
-73 -265 0
-74 -266 0
-75 -267 0
-76 -268 0
-77 -269 0
-78 -270 0
-79 -271 0
-80 -272 0
-73 -89 0
-74 -90 0
-75 -91 0
-76 -92 0
-77 -93 0
-78 -94 0
-79 -95 0
-80 -96 0
-73 -153 0
-74 -154 0
-75 -155 0
-76 -156 0
-77 -157 0
-78 -158 0
-79 -159 0
-80 -160 0
-73 -305 0
-74 -306 0
-75 -307 0
-76 -308 0
-77 -309 0
-78 -310 0
-79 -311 0
-80 -312 0
-73 -289 0
-74 -290 0
-75 -291 0
-76 -292 0
-77 -293 0
-78 -294 0
-79 -295 0
-80 -296 0
-73 -185 0
-74 -186 0
-75 -187 0
-76 -188 0
-77 -189 0
-78 -190 0
-79 -191 0
-80 -192 0
-73 -113 0
-74 -114 0
-75 -115 0
-76 -116 0
-77 -117 0
-78 -118 0
-79 -119 0
-80 -120 0
-73 -169 0
-74 -170 0
-75 -171 0
-76 -172 0
-77 -173 0
-78 -174 0
-79 -175 0
-80 -176 0
-73 -177 0
-74 -178 0
-75 -179 0
-76 -180 0
-77 -181 0
-78 -182 0
-79 -183 0
-80 -184 0
-73 -193 0
-74 -194 0
-75 -195 0
-76 -196 0
-77 -197 0
-78 -198 0
-79 -199 0
-80 -200 0
-73 -201 0
-74 -202 0
-75 -203 0
-76 -204 0
-77 -205 0
-78 -206 0
-79 -207 0
-80 -208 0
-73 -281 0
-74 -282 0
-75 -283 0
-76 -284 0
-77 -285 0
-78 -286 0
-79 -287 0
-80 -288 0
-81 -241 0
-82 -242 0
-83 -243 0
-84 -244 0
-85 -245 0
-86 -246 0
-87 -247 0
-88 -248 0
-81 -105 0
-82 -106 0
-83 -107 0
-84 -108 0
-85 -109 0
-86 -110 0
-87 -111 0
-88 -112 0
-81 -233 0
-82 -234 0
-83 -235 0
-84 -236 0
-85 -237 0
-86 -238 0
-87 -239 0
-88 -240 0
-81 -257 0
-82 -258 0
-83 -259 0
-84 -260 0
-85 -261 0
-86 -262 0
-87 -263 0
-88 -264 0
-81 -265 0
-82 -266 0
-83 -267 0
-84 -268 0
-85 -269 0
-86 -270 0
-87 -271 0
-88 -272 0
-81 -225 0
-82 -226 0
-83 -227 0
-84 -228 0
-85 -229 0
-86 -230 0
-87 -231 0
-88 -232 0
-81 -137 0
-82 -138 0
-83 -139 0
-84 -140 0
-85 -141 0
-86 -142 0
-87 -143 0
-88 -144 0
-81 -129 0
-82 -130 0
-83 -131 0
-84 -132 0
-85 -133 0
-86 -134 0
-87 -135 0
-88 -136 0
-81 -201 0
-82 -202 0
-83 -203 0
-84 -204 0
-85 -205 0
-86 -206 0
-87 -207 0
-88 -208 0
-81 -209 0
-82 -210 0
-83 -211 0
-84 -212 0
-85 -213 0
-86 -214 0
-87 -215 0
-88 -216 0
-89 -233 0
-90 -234 0
-91 -235 0
-92 -236 0
-93 -237 0
-94 -238 0
-95 -239 0
-96 -240 0
-89 -257 0
-90 -258 0
-91 -259 0
-92 -260 0
-93 -261 0
-94 -262 0
-95 -263 0
-96 -264 0
-89 -297 0
-90 -298 0
-91 -299 0
-92 -300 0
-93 -301 0
-94 -302 0
-95 -303 0
-96 -304 0
-89 -265 0
-90 -266 0
-91 -267 0
-92 -268 0
-93 -269 0
-94 -270 0
-95 -271 0
-96 -272 0
-89 -161 0
-90 -162 0
-91 -163 0
-92 -164 0
-93 -165 0
-94 -166 0
-95 -167 0
-96 -168 0
-89 -153 0
-90 -154 0
-91 -155 0
-92 -156 0
-93 -157 0
-94 -158 0
-95 -159 0
-96 -160 0
-89 -113 0
-90 -114 0
-91 -115 0
-92 -116 0
-93 -117 0
-94 -118 0
-95 -119 0
-96 -120 0
-89 -121 0
-90 -122 0
-91 -123 0
-92 -124 0
-93 -125 0
-94 -126 0
-95 -127 0
-96 -128 0
-89 -169 0
-90 -170 0
-91 -171 0
-92 -172 0
-93 -173 0
-94 -174 0
-95 -175 0
-96 -176 0
-89 -185 0
-90 -186 0
-91 -187 0
-92 -188 0
-93 -189 0
-94 -190 0
-95 -191 0
-96 -192 0
-89 -209 0
-90 -210 0
-91 -211 0
-92 -212 0
-93 -213 0
-94 -214 0
-95 -215 0
-96 -216 0
-97 -241 0
-98 -242 0
-99 -243 0
-100 -244 0
-101 -245 0
-102 -246 0
-103 -247 0
-104 -248 0
-97 -249 0
-98 -250 0
-99 -251 0
-100 -252 0
-101 -253 0
-102 -254 0
-103 -255 0
-104 -256 0
-97 -217 0
-98 -218 0
-99 -219 0
-100 -220 0
-101 -221 0
-102 -222 0
-103 -223 0
-104 -224 0
-97 -145 0
-98 -146 0
-99 -147 0
-100 -148 0
-101 -149 0
-102 -150 0
-103 -151 0
-104 -152 0
-97 -193 0
-98 -194 0
-99 -195 0
-100 -196 0
-101 -197 0
-102 -198 0
-103 -199 0
-104 -200 0
-97 -281 0
-98 -282 0
-99 -283 0
-100 -284 0
-101 -285 0
-102 -286 0
-103 -287 0
-104 -288 0
-97 -225 0
-98 -226 0
-99 -227 0
-100 -228 0
-101 -229 0
-102 -230 0
-103 -231 0
-104 -232 0
-97 -305 0
-98 -306 0
-99 -307 0
-100 -308 0
-101 -309 0
-102 -310 0
-103 -311 0
-104 -312 0
-97 -177 0
-98 -178 0
-99 -179 0
-100 -180 0
-101 -181 0
-102 -182 0
-103 -183 0
-104 -184 0
-97 -289 0
-98 -290 0
-99 -291 0
-100 -292 0
-101 -293 0
-102 -294 0
-103 -295 0
-104 -296 0
-97 -201 0
-98 -202 0
-99 -203 0
-100 -204 0
-101 -205 0
-102 -206 0
-103 -207 0
-104 -208 0
-105 -233 0
-106 -234 0
-107 -235 0
-108 -236 0
-109 -237 0
-110 -238 0
-111 -239 0
-112 -240 0
-105 -257 0
-106 -258 0
-107 -259 0
-108 -260 0
-109 -261 0
-110 -262 0
-111 -263 0
-112 -264 0
-105 -265 0
-106 -266 0
-107 -267 0
-108 -268 0
-109 -269 0
-110 -270 0
-111 -271 0
-112 -272 0
-105 -201 0
-106 -202 0
-107 -203 0
-108 -204 0
-109 -205 0
-110 -206 0
-111 -207 0
-112 -208 0
-105 -225 0
-106 -226 0
-107 -227 0
-108 -228 0
-109 -229 0
-110 -230 0
-111 -231 0
-112 -232 0
-105 -297 0
-106 -298 0
-107 -299 0
-108 -300 0
-109 -301 0
-110 -302 0
-111 -303 0
-112 -304 0
-105 -129 0
-106 -130 0
-107 -131 0
-108 -132 0
-109 -133 0
-110 -134 0
-111 -135 0
-112 -136 0
-105 -305 0
-106 -306 0
-107 -307 0
-108 -308 0
-109 -309 0
-110 -310 0
-111 -311 0
-112 -312 0
-105 -193 0
-106 -194 0
-107 -195 0
-108 -196 0
-109 -197 0
-110 -198 0
-111 -199 0
-112 -200 0
-105 -209 0
-106 -210 0
-107 -211 0
-108 -212 0
-109 -213 0
-110 -214 0
-111 -215 0
-112 -216 0
-113 -257 0
-114 -258 0
-115 -259 0
-116 -260 0
-117 -261 0
-118 -262 0
-119 -263 0
-120 -264 0
-113 -297 0
-114 -298 0
-115 -299 0
-116 -300 0
-117 -301 0
-118 -302 0
-119 -303 0
-120 -304 0
-113 -265 0
-114 -266 0
-115 -267 0
-116 -268 0
-117 -269 0
-118 -270 0
-119 -271 0
-120 -272 0
-113 -161 0
-114 -162 0
-115 -163 0
-116 -164 0
-117 -165 0
-118 -166 0
-119 -167 0
-120 -168 0
-113 -153 0
-114 -154 0
-115 -155 0
-116 -156 0
-117 -157 0
-118 -158 0
-119 -159 0
-120 -160 0
-113 -145 0
-114 -146 0
-115 -147 0
-116 -148 0
-117 -149 0
-118 -150 0
-119 -151 0
-120 -152 0
-113 -121 0
-114 -122 0
-115 -123 0
-116 -124 0
-117 -125 0
-118 -126 0
-119 -127 0
-120 -128 0
-113 -305 0
-114 -306 0
-115 -307 0
-116 -308 0
-117 -309 0
-118 -310 0
-119 -311 0
-120 -312 0
-113 -169 0
-114 -170 0
-115 -171 0
-116 -172 0
-117 -173 0
-118 -174 0
-119 -175 0
-120 -176 0
-113 -177 0
-114 -178 0
-115 -179 0
-116 -180 0
-117 -181 0
-118 -182 0
-119 -183 0
-120 -184 0
-113 -185 0
-114 -186 0
-115 -187 0
-116 -188 0
-117 -189 0
-118 -190 0
-119 -191 0
-120 -192 0
-113 -289 0
-114 -290 0
-115 -291 0
-116 -292 0
-117 -293 0
-118 -294 0
-119 -295 0
-120 -296 0
-121 -249 0
-122 -250 0
-123 -251 0
-124 -252 0
-125 -253 0
-126 -254 0
-127 -255 0
-128 -256 0
-121 -161 0
-122 -162 0
-123 -163 0
-124 -164 0
-125 -165 0
-126 -166 0
-127 -167 0
-128 -168 0
-121 -153 0
-122 -154 0
-123 -155 0
-124 -156 0
-125 -157 0
-126 -158 0
-127 -159 0
-128 -160 0
-121 -217 0
-122 -218 0
-123 -219 0
-124 -220 0
-125 -221 0
-126 -222 0
-127 -223 0
-128 -224 0
-121 -145 0
-122 -146 0
-123 -147 0
-124 -148 0
-125 -149 0
-126 -150 0
-127 -151 0
-128 -152 0
-121 -137 0
-122 -138 0
-123 -139 0
-124 -140 0
-125 -141 0
-126 -142 0
-127 -143 0
-128 -144 0
-121 -273 0
-122 -274 0
-123 -275 0
-124 -276 0
-125 -277 0
-126 -278 0
-127 -279 0
-128 -280 0
-121 -129 0
-122 -130 0
-123 -131 0
-124 -132 0
-125 -133 0
-126 -134 0
-127 -135 0
-128 -136 0
-121 -169 0
-122 -170 0
-123 -171 0
-124 -172 0
-125 -173 0
-126 -174 0
-127 -175 0
-128 -176 0
-121 -209 0
-122 -210 0
-123 -211 0
-124 -212 0
-125 -213 0
-126 -214 0
-127 -215 0
-128 -216 0
-129 -241 0
-130 -242 0
-131 -243 0
-132 -244 0
-133 -245 0
-134 -246 0
-135 -247 0
-136 -248 0
-129 -249 0
-130 -250 0
-131 -251 0
-132 -252 0
-133 -253 0
-134 -254 0
-135 -255 0
-136 -256 0
-129 -233 0
-130 -234 0
-131 -235 0
-132 -236 0
-133 -237 0
-134 -238 0
-135 -239 0
-136 -240 0
-129 -257 0
-130 -258 0
-131 -259 0
-132 -260 0
-133 -261 0
-134 -262 0
-135 -263 0
-136 -264 0
-129 -161 0
-130 -162 0
-131 -163 0
-132 -164 0
-133 -165 0
-134 -166 0
-135 -167 0
-136 -168 0
-129 -225 0
-130 -226 0
-131 -227 0
-132 -228 0
-133 -229 0
-134 -230 0
-135 -231 0
-136 -232 0
-129 -137 0
-130 -138 0
-131 -139 0
-132 -140 0
-133 -141 0
-134 -142 0
-135 -143 0
-136 -144 0
-129 -273 0
-130 -274 0
-131 -275 0
-132 -276 0
-133 -277 0
-134 -278 0
-135 -279 0
-136 -280 0
-129 -209 0
-130 -210 0
-131 -211 0
-132 -212 0
-133 -213 0
-134 -214 0
-135 -215 0
-136 -216 0
-137 -241 0
-138 -242 0
-139 -243 0
-140 -244 0
-141 -245 0
-142 -246 0
-143 -247 0
-144 -248 0
-137 -249 0
-138 -250 0
-139 -251 0
-140 -252 0
-141 -253 0
-142 -254 0
-143 -255 0
-144 -256 0
-137 -233 0
-138 -234 0
-139 -235 0
-140 -236 0
-141 -237 0
-142 -238 0
-143 -239 0
-144 -240 0
-137 -161 0
-138 -162 0
-139 -163 0
-140 -164 0
-141 -165 0
-142 -166 0
-143 -167 0
-144 -168 0
-137 -217 0
-138 -218 0
-139 -219 0
-140 -220 0
-141 -221 0
-142 -222 0
-143 -223 0
-144 -224 0
-137 -225 0
-138 -226 0
-139 -227 0
-140 -228 0
-141 -229 0
-142 -230 0
-143 -231 0
-144 -232 0
-137 -273 0
-138 -274 0
-139 -275 0
-140 -276 0
-141 -277 0
-142 -278 0
-143 -279 0
-144 -280 0
-137 -209 0
-138 -210 0
-139 -211 0
-140 -212 0
-141 -213 0
-142 -214 0
-143 -215 0
-144 -216 0
-145 -249 0
-146 -250 0
-147 -251 0
-148 -252 0
-149 -253 0
-150 -254 0
-151 -255 0
-152 -256 0
-145 -153 0
-146 -154 0
-147 -155 0
-148 -156 0
-149 -157 0
-150 -158 0
-151 -159 0
-152 -160 0
-145 -217 0
-146 -218 0
-147 -219 0
-148 -220 0
-149 -221 0
-150 -222 0
-151 -223 0
-152 -224 0
-145 -169 0
-146 -170 0
-147 -171 0
-148 -172 0
-149 -173 0
-150 -174 0
-151 -175 0
-152 -176 0
-145 -177 0
-146 -178 0
-147 -179 0
-148 -180 0
-149 -181 0
-150 -182 0
-151 -183 0
-152 -184 0
-145 -273 0
-146 -274 0
-147 -275 0
-148 -276 0
-149 -277 0
-150 -278 0
-151 -279 0
-152 -280 0
-145 -185 0
-146 -186 0
-147 -187 0
-148 -188 0
-149 -189 0
-150 -190 0
-151 -191 0
-152 -192 0
-145 -289 0
-146 -290 0
-147 -291 0
-148 -292 0
-149 -293 0
-150 -294 0
-151 -295 0
-152 -296 0
-145 -281 0
-146 -282 0
-147 -283 0
-148 -284 0
-149 -285 0
-150 -286 0
-151 -287 0
-152 -288 0
-153 -297 0
-154 -298 0
-155 -299 0
-156 -300 0
-157 -301 0
-158 -302 0
-159 -303 0
-160 -304 0
-153 -161 0
-154 -162 0
-155 -163 0
-156 -164 0
-157 -165 0
-158 -166 0
-159 -167 0
-160 -168 0
-153 -169 0
-154 -170 0
-155 -171 0
-156 -172 0
-157 -173 0
-158 -174 0
-159 -175 0
-160 -176 0
-153 -273 0
-154 -274 0
-155 -275 0
-156 -276 0
-157 -277 0
-158 -278 0
-159 -279 0
-160 -280 0
-153 -177 0
-154 -178 0
-155 -179 0
-156 -180 0
-157 -181 0
-158 -182 0
-159 -183 0
-160 -184 0
-153 -185 0
-154 -186 0
-155 -187 0
-156 -188 0
-157 -189 0
-158 -190 0
-159 -191 0
-160 -192 0
-153 -209 0
-154 -210 0
-155 -211 0
-156 -212 0
-157 -213 0
-158 -214 0
-159 -215 0
-160 -216 0
-161 -233 0
-162 -234 0
-163 -235 0
-164 -236 0
-165 -237 0
-166 -238 0
-167 -239 0
-168 -240 0
-161 -257 0
-162 -258 0
-163 -259 0
-164 -260 0
-165 -261 0
-166 -262 0
-167 -263 0
-168 -264 0
-161 -297 0
-162 -298 0
-163 -299 0
-164 -300 0
-165 -301 0
-166 -302 0
-167 -303 0
-168 -304 0
-161 -209 0
-162 -210 0
-163 -211 0
-164 -212 0
-165 -213 0
-166 -214 0
-167 -215 0
-168 -216 0
-161 -273 0
-162 -274 0
-163 -275 0
-164 -276 0
-165 -277 0
-166 -278 0
-167 -279 0
-168 -280 0
-161 -169 0
-162 -170 0
-163 -171 0
-164 -172 0
-165 -173 0
-166 -174 0
-167 -175 0
-168 -176 0
-169 -297 0
-170 -298 0
-171 -299 0
-172 -300 0
-173 -301 0
-174 -302 0
-175 -303 0
-176 -304 0
-169 -217 0
-170 -218 0
-171 -219 0
-172 -220 0
-173 -221 0
-174 -222 0
-175 -223 0
-176 -224 0
-169 -177 0
-170 -178 0
-171 -179 0
-172 -180 0
-173 -181 0
-174 -182 0
-175 -183 0
-176 -184 0
-169 -185 0
-170 -186 0
-171 -187 0
-172 -188 0
-173 -189 0
-174 -190 0
-175 -191 0
-176 -192 0
-169 -289 0
-170 -290 0
-171 -291 0
-172 -292 0
-173 -293 0
-174 -294 0
-175 -295 0
-176 -296 0
-169 -281 0
-170 -282 0
-171 -283 0
-172 -284 0
-173 -285 0
-174 -286 0
-175 -287 0
-176 -288 0
-177 -217 0
-178 -218 0
-179 -219 0
-180 -220 0
-181 -221 0
-182 -222 0
-183 -223 0
-184 -224 0
-177 -305 0
-178 -306 0
-179 -307 0
-180 -308 0
-181 -309 0
-182 -310 0
-183 -311 0
-184 -312 0
-177 -185 0
-178 -186 0
-179 -187 0
-180 -188 0
-181 -189 0
-182 -190 0
-183 -191 0
-184 -192 0
-177 -289 0
-178 -290 0
-179 -291 0
-180 -292 0
-181 -293 0
-182 -294 0
-183 -295 0
-184 -296 0
-177 -281 0
-178 -282 0
-179 -283 0
-180 -284 0
-181 -285 0
-182 -286 0
-183 -287 0
-184 -288 0
-177 -193 0
-178 -194 0
-179 -195 0
-180 -196 0
-181 -197 0
-182 -198 0
-183 -199 0
-184 -200 0
-185 -297 0
-186 -298 0
-187 -299 0
-188 -300 0
-189 -301 0
-190 -302 0
-191 -303 0
-192 -304 0
-185 -265 0
-186 -266 0
-187 -267 0
-188 -268 0
-189 -269 0
-190 -270 0
-191 -271 0
-192 -272 0
-185 -305 0
-186 -306 0
-187 -307 0
-188 -308 0
-189 -309 0
-190 -310 0
-191 -311 0
-192 -312 0
-185 -289 0
-186 -290 0
-187 -291 0
-188 -292 0
-189 -293 0
-190 -294 0
-191 -295 0
-192 -296 0
-185 -193 0
-186 -194 0
-187 -195 0
-188 -196 0
-189 -197 0
-190 -198 0
-191 -199 0
-192 -200 0
-185 -281 0
-186 -282 0
-187 -283 0
-188 -284 0
-189 -285 0
-190 -286 0
-191 -287 0
-192 -288 0
-193 -265 0
-194 -266 0
-195 -267 0
-196 -268 0
-197 -269 0
-198 -270 0
-199 -271 0
-200 -272 0
-193 -225 0
-194 -226 0
-195 -227 0
-196 -228 0
-197 -229 0
-198 -230 0
-199 -231 0
-200 -232 0
-193 -305 0
-194 -306 0
-195 -307 0
-196 -308 0
-197 -309 0
-198 -310 0
-199 -311 0
-200 -312 0
-193 -289 0
-194 -290 0
-195 -291 0
-196 -292 0
-197 -293 0
-198 -294 0
-199 -295 0
-200 -296 0
-193 -201 0
-194 -202 0
-195 -203 0
-196 -204 0
-197 -205 0
-198 -206 0
-199 -207 0
-200 -208 0
-193 -281 0
-194 -282 0
-195 -283 0
-196 -284 0
-197 -285 0
-198 -286 0
-199 -287 0
-200 -288 0
-201 -233 0
-202 -234 0
-203 -235 0
-204 -236 0
-205 -237 0
-206 -238 0
-207 -239 0
-208 -240 0
-201 -257 0
-202 -258 0
-203 -259 0
-204 -260 0
-205 -261 0
-206 -262 0
-207 -263 0
-208 -264 0
-201 -297 0
-202 -298 0
-203 -299 0
-204 -300 0
-205 -301 0
-206 -302 0
-207 -303 0
-208 -304 0
-201 -265 0
-202 -266 0
-203 -267 0
-204 -268 0
-205 -269 0
-206 -270 0
-207 -271 0
-208 -272 0
-201 -225 0
-202 -226 0
-203 -227 0
-204 -228 0
-205 -229 0
-206 -230 0
-207 -231 0
-208 -232 0
-201 -305 0
-202 -306 0
-203 -307 0
-204 -308 0
-205 -309 0
-206 -310 0
-207 -311 0
-208 -312 0
-201 -289 0
-202 -290 0
-203 -291 0
-204 -292 0
-205 -293 0
-206 -294 0
-207 -295 0
-208 -296 0
-201 -281 0
-202 -282 0
-203 -283 0
-204 -284 0
-205 -285 0
-206 -286 0
-207 -287 0
-208 -288 0
-209 -233 0
-210 -234 0
-211 -235 0
-212 -236 0
-213 -237 0
-214 -238 0
-215 -239 0
-216 -240 0
-209 -257 0
-210 -258 0
-211 -259 0
-212 -260 0
-213 -261 0
-214 -262 0
-215 -263 0
-216 -264 0
-209 -297 0
-210 -298 0
-211 -299 0
-212 -300 0
-213 -301 0
-214 -302 0
-215 -303 0
-216 -304 0
-209 -273 0
-210 -274 0
-211 -275 0
-212 -276 0
-213 -277 0
-214 -278 0
-215 -279 0
-216 -280 0
-217 -241 0
-218 -242 0
-219 -243 0
-220 -244 0
-221 -245 0
-222 -246 0
-223 -247 0
-224 -248 0
-217 -249 0
-218 -250 0
-219 -251 0
-220 -252 0
-221 -253 0
-222 -254 0
-223 -255 0
-224 -256 0
-217 -273 0
-218 -274 0
-219 -275 0
-220 -276 0
-221 -277 0
-222 -278 0
-223 -279 0
-224 -280 0
-217 -281 0
-218 -282 0
-219 -283 0
-220 -284 0
-221 -285 0
-222 -286 0
-223 -287 0
-224 -288 0
-225 -241 0
-226 -242 0
-227 -243 0
-228 -244 0
-229 -245 0
-230 -246 0
-231 -247 0
-232 -248 0
-225 -233 0
-226 -234 0
-227 -235 0
-228 -236 0
-229 -237 0
-230 -238 0
-231 -239 0
-232 -240 0
-225 -257 0
-226 -258 0
-227 -259 0
-228 -260 0
-229 -261 0
-230 -262 0
-231 -263 0
-232 -264 0
-225 -265 0
-226 -266 0
-227 -267 0
-228 -268 0
-229 -269 0
-230 -270 0
-231 -271 0
-232 -272 0
-225 -305 0
-226 -306 0
-227 -307 0
-228 -308 0
-229 -309 0
-230 -310 0
-231 -311 0
-232 -312 0
-233 -257 0
-234 -258 0
-235 -259 0
-236 -260 0
-237 -261 0
-238 -262 0
-239 -263 0
-240 -264 0
-233 -297 0
-234 -298 0
-235 -299 0
-236 -300 0
-237 -301 0
-238 -302 0
-239 -303 0
-240 -304 0
-233 -265 0
-234 -266 0
-235 -267 0
-236 -268 0
-237 -269 0
-238 -270 0
-239 -271 0
-240 -272 0
-241 -249 0
-242 -250 0
-243 -251 0
-244 -252 0
-245 -253 0
-246 -254 0
-247 -255 0
-248 -256 0
-241 -273 0
-242 -274 0
-243 -275 0
-244 -276 0
-245 -277 0
-246 -278 0
-247 -279 0
-248 -280 0
-249 -273 0
-250 -274 0
-251 -275 0
-252 -276 0
-253 -277 0
-254 -278 0
-255 -279 0
-256 -280 0
-257 -265 0
-258 -266 0
-259 -267 0
-260 -268 0
-261 -269 0
-262 -270 0
-263 -271 0
-264 -272 0
-257 -297 0
-258 -298 0
-259 -299 0
-260 -300 0
-261 -301 0
-262 -302 0
-263 -303 0
-264 -304 0
-257 -305 0
-258 -306 0
-259 -307 0
-260 -308 0
-261 -309 0
-262 -310 0
-263 -311 0
-264 -312 0
-265 -297 0
-266 -298 0
-267 -299 0
-268 -300 0
-269 -301 0
-270 -302 0
-271 -303 0
-272 -304 0
-265 -305 0
-266 -306 0
-267 -307 0
-268 -308 0
-269 -309 0
-270 -310 0
-271 -311 0
-272 -312 0
-265 -289 0
-266 -290 0
-267 -291 0
-268 -292 0
-269 -293 0
-270 -294 0
-271 -295 0
-272 -296 0
-281 -305 0
-282 -306 0
-283 -307 0
-284 -308 0
-285 -309 0
-286 -310 0
-287 -311 0
-288 -312 0
-281 -289 0
-282 -290 0
-283 -291 0
-284 -292 0
-285 -293 0
-286 -294 0
-287 -295 0
-288 -296 0
-289 -297 0
-290 -298 0
-291 -299 0
-292 -300 0
-293 -301 0
-294 -302 0
-295 -303 0
-296 -304 0
-289 -305 0
-290 -306 0
-291 -307 0
-292 -308 0
-293 -309 0
-294 -310 0
-295 -311 0
-296 -312 0
-297 -305 0
-298 -306 0
-299 -307 0
-300 -308 0
-301 -309 0
-302 -310 0
-303 -311 0
-304 -312 0
1 2 3 4 5 6 7 8 0
9 10 11 12 13 14 15 16 0
17 18 19 20 21 22 23 24 0
25 26 27 28 29 30 31 32 0
33 34 35 36 37 38 39 40 0
41 42 43 44 45 46 47 48 0
49 50 51 52 53 54 55 56 0
57 58 59 60 61 62 63 64 0
65 66 67 68 69 70 71 72 0
73 74 75 76 77 78 79 80 0
81 82 83 84 85 86 87 88 0
89 90 91 92 93 94 95 96 0
97 98 99 100 101 102 103 104 0
105 106 107 108 109 110 111 112 0
113 114 115 116 117 118 119 120 0
121 122 123 124 125 126 127 128 0
129 130 131 132 133 134 135 136 0
137 138 139 140 141 142 143 144 0
145 146 147 148 149 150 151 152 0
153 154 155 156 157 158 159 160 0
161 162 163 164 165 166 167 168 0
169 170 171 172 173 174 175 176 0
177 178 179 180 181 182 183 184 0
185 186 187 188 189 190 191 192 0
193 194 195 196 197 198 199 200 0
201 202 203 204 205 206 207 208 0
209 210 211 212 213 214 215 216 0
217 218 219 220 221 222 223 224 0
225 226 227 228 229 230 231 232 0
233 234 235 236 237 238 239 240 0
241 242 243 244 245 246 247 248 0
249 250 251 252 253 254 255 256 0
257 258 259 260 261 262 263 264 0
265 266 267 268 269 270 271 272 0
273 274 275 276 277 278 279 280 0
281 282 283 284 285 286 287 288 0
289 290 291 292 293 294 295 296 0
297 298 299 300 301 302 303 304 0
305 306 307 308 309 310 311 312 0
